SPARKNaCl/why3-cvc5/sparknacl-core.adb_123_25_range_check4_1.smt2
;; produced by cvc5.drv ;;
(set-logic ALL)
(set-info :smt-lib-version 2.6)
;;; generated by SMT-LIB2 driver
;;; SMT-LIB2 driver: bit-vectors, common part
;;; SMT-LIB2: integer arithmetic
;; "pow2"
(declare-fun pow2 (Int) Int)

(declare-const two_power_size_minus_one Int)

;; "two_power_size_minus_one_val"
(assert (= two_power_size_minus_one (pow2 (- 32 1))))

;; "min"
(define-fun min ((x Int) (y Int)) Int
  (ite (<= x y) x y))

;; "max"
(define-fun max ((x Int) (y Int)) Int
  (ite (<= x y) y x))

;; "Min_r"
(assert (forall ((x Int) (y Int)) (=> (<= y x) (= (min x y) y))))

;; "Max_l"
(assert (forall ((x Int) (y Int)) (=> (<= y x) (= (max x y) x))))

;; "Min_comm"
(assert (forall ((x Int) (y Int)) (= (min x y) (min y x))))

;; "Max_comm"
(assert (forall ((x Int) (y Int)) (= (max x y) (max y x))))

;; "Min_assoc"
(assert
  (forall ((x Int) (y Int) (z Int)) (= (min (min x y) z) (min x (min y z)))))

;; "Max_assoc"
(assert
  (forall ((x Int) (y Int) (z Int)) (= (max (max x y) z) (max x (max y z)))))

(declare-const two_power_size_minus_one1 Int)

;; "two_power_size_minus_one_val"
(assert (= two_power_size_minus_one1 (pow2 (- 8 1))))

(declare-sort byte 0)

;; "to_rep"
(declare-fun to_rep (byte) (_ BitVec 8))

;; "of_rep"
(declare-fun of_rep ((_ BitVec 8)) byte)

;; "inversion_axiom"
(assert
  (forall ((x byte)) (! (= (of_rep (to_rep x)) x) :pattern ((to_rep x)) )))

;; "range_axiom"
(assert true)

;; "coerce_axiom"
(assert
  (forall ((x (_ BitVec 8)))
    (! (= (to_rep (of_rep x)) x) :pattern ((to_rep (of_rep x))) )))

(declare-sort map1 0)

;; "has_bounds"
(declare-fun has_bounds (map1
  Int
  Int) Bool)

;; "get"
(declare-fun get (map1
  Int) byte)

;; "slide"
(declare-fun slide (map1
  Int
  Int) map1)

;; "slide_eq"
(assert
  (forall ((a map1) (first Int))
    (! (= (slide a first first) a) :pattern ((slide a first first)) )))

;; "slide_def"
(assert
  (forall ((a map1) (old_first Int) (new_first Int))
    (! (and
         (forall ((i Int))
           (! (= (get (slide a old_first new_first) i) (get
                                                         a
                                                         (- i (- new_first old_first)))) :pattern (
           (get
             (slide a old_first new_first)
             i)) ))
         (forall ((new_last Int))
           (! (=>
                (has_bounds a old_first (- new_last (- new_first old_first)))
                (has_bounds (slide a old_first new_first) new_first new_last)) :pattern (
           (has_bounds
             (slide a old_first new_first)
             new_first
             new_last)) ))) :pattern ((slide a old_first new_first)) )))

;; "slice"
(declare-fun slice (map1
  Int
  Int) map1)

;; "slice_eq"
(assert
  (forall ((a map1) (f Int) (l Int))
    (! (=> (has_bounds a f l) (= (slice a f l) a)) :pattern ((slice a f l)
    (has_bounds a f l)) )))

;; "slice_slice"
(assert
  (forall ((a map1) (f1 Int) (l1 Int) (f2 Int) (l2 Int))
    (! (=>
         (and (<= f1 f2) (<= l2 l1))
         (= (slice (slice a f1 l1) f2 l2) (slice a f2 l2))) :pattern (
    (slice
      (slice a f1 l1)
      f2
      l2)) )))

;; "slice_def"
(assert
  (forall ((a map1) (f Int) (l Int))
    (! (forall ((i Int))
         (! (=> (and (<= f i) (<= i l)) (= (get (slice a f l) i) (get a i))) :pattern (
         (get
           (slice a f l)
           i)) :pattern ((get a i)) )) :pattern ((slice a f l)) )))

;; "slice_has_bounds"
(assert
  (forall ((a map1) (f Int) (l Int))
    (! (has_bounds (slice a f l) f l) :pattern ((has_bounds
                                                  (slice a f l)
                                                  f
                                                  l)) )))

(declare-datatypes ((us_split_fields 0))
  (((us_split_fieldsqtmk (rec__ada___sparknacl__core__salsa20_key__f map1)))))

(declare-datatypes ((us_rep 0))
  (((us_repqtmk (us_split_fields1 us_split_fields)))))

;; "dynamic_invariant"
(define-fun dynamic_invariant ((temp___expr_300 us_rep) (temp___is_init_296 Bool) (temp___skip_constant_297 Bool) (temp___do_toplevel_298 Bool) (temp___do_typ_inv_299 Bool)) Bool
  (has_bounds
    (rec__ada___sparknacl__core__salsa20_key__f
      (us_split_fields1 temp___expr_300))
    0
    31))

(declare-const input map1)

(declare-const k us_rep)

(declare-const c map1)

(declare-sort u32 0)

;; "to_rep"
(declare-fun to_rep1 (u32) (_ BitVec 32))

;; "of_rep"
(declare-fun of_rep1 ((_ BitVec 32)) u32)

;; "inversion_axiom"
(assert
  (forall ((x u32)) (! (= (of_rep1 (to_rep1 x)) x) :pattern ((to_rep1 x)) )))

;; "range_axiom"
(assert true)

;; "coerce_axiom"
(assert
  (forall ((x (_ BitVec 32)))
    (! (= (to_rep1 (of_rep1 x)) x) :pattern ((to_rep1 (of_rep1 x))) )))

(declare-sort map2 0)

;; "has_bounds"
(declare-fun has_bounds1 (map2
  Int
  Int) Bool)

;; "get"
(declare-fun get1 (map2
  Int) u32)

;; "ld32"
(declare-fun ld32 (map1) (_ BitVec 32))

;; "ld32__function_guard"
(declare-fun ld32__function_guard ((_ BitVec 32)
  map1) Bool)

;; "temp_____aggregate_def_1491"
(declare-fun temp_____aggregate_def_1491 ((_ BitVec 32)) map2)

;; Goal "def'vc"
;; File "sparknacl-core.adb", line 14, characters 0-0
(assert
  (not
  (forall ((x map2) (y map2) (w map2) (t map2))
    (=>
      (has_bounds input 0 15)
      (=>
        (dynamic_invariant k true false true true)
        (=>
          (has_bounds c 0 15)
          (=>
            (has_bounds1 x 0 15)
            (=>
              (has_bounds1 y 0 15)
              (=>
                (has_bounds1 w 0 15)
                (=>
                  (has_bounds1 t 0 3)
                  (forall ((temp___1495 map2))
                    (=>
                      (and
                        (and
                          (has_bounds1 temp___1495 0 15)
                          (forall ((temp___1494 Int))
                            (! (=>
                                 (and (<= 0 temp___1494) (<= temp___1494 15))
                                 (= (to_rep1 (get1 temp___1495 temp___1494)) #x00000000)) :pattern (
                            (get1
                              temp___1495
                              temp___1494)) )))
                        (= temp___1495 (temp_____aggregate_def_1491
                                         #x00000000)))
                      (forall ((w1 map2))
                        (=>
                          (= w1 temp___1495)
                          (=>
                            (=>
                              (<= 28 31)
                              (and
                                (and (<= 0 28) (<= 28 31))
                                (and (<= 0 31) (<= 31 31))))
                            (let ((temp___1589 (slide
                                                 (slice
                                                   (rec__ada___sparknacl__core__salsa20_key__f
                                                     (us_split_fields1 k))
                                                   28
                                                   31)
                                                 28
                                                 0)))
                              (=>
                                (ld32__function_guard
                                  (ld32 temp___1589)
                                  temp___1589)
                                (=>
                                  (=>
                                    (<= 12 15)
                                    (and
                                      (and (<= 0 12) (<= 12 15))
                                      (and (<= 0 15) (<= 15 15))))
                                  (let ((temp___1584 (slide
                                                       (slice input 12 15)
                                                       12
                                                       0)))
                                    (=>
                                      (ld32__function_guard
                                        (ld32 temp___1584)
                                        temp___1584)
                                      (=>
                                        (=>
                                          (<= 12 15)
                                          (and
                                            (and (<= 0 12) (<= 12 31))
                                            (and (<= 0 15) (<= 15 31))))
                                        (let ((temp___1580 (slide
                                                             (slice
                                                               (rec__ada___sparknacl__core__salsa20_key__f
                                                                 (us_split_fields1
                                                                   k))
                                                               12
                                                               15)
                                                             12
                                                             0)))
                                          (=>
                                            (ld32__function_guard
                                              (ld32 temp___1580)
                                              temp___1580)
                                            (=> (<= 12 15) (<= 15 15)))))))))))))))))))))))))

(check-sat)
